
Gurobi 11.0.0 (win64) logging started Mon May 20 08:42:11 2024

Set parameter LogFile to value "./Results/StripPacking-SequencePairBranchRuns/Logs/RUspb-010-StripPacking-10.log"
Set parameter TimeLimit to value 10800
Set parameter Cuts to value 0
Set parameter Presolve to value 1
Set parameter Heuristics to value 0
Set parameter LPWarmStart to value 2
Gurobi Optimizer version 11.0.0 build v11.0.0rc2 (win64 - Windows 10.0 (19045.2))

CPU model: Intel(R) Core(TM) i9-10980XE CPU @ 3.00GHz, instruction set [SSE2|AVX|AVX2|AVX512]
Thread count: 18 physical cores, 36 logical processors, using up to 18 threads

Optimize a model with 2125 rows, 201 columns and 6140 nonzeros
Model fingerprint: 0xd6f37554
Variable types: 21 continuous, 180 integer (180 binary)
Coefficient statistics:
  Matrix range     [1e+00, 1e+04]
  Objective range  [1e+00, 1e+00]
  Bounds range     [1e+00, 1e+04]
  RHS range        [1e+00, 1e+04]
Using branch priorities.

Warning: Completing partial solution with 180 unfixed non-continuous variables out of 180
User MIP start produced solution with objective 50 (0.00s)
Loaded user MIP start with objective 50

Presolve removed 365 rows and 22 columns
Presolve time: 0.02s
Presolved: 1760 rows, 179 columns, 5253 nonzeros
Variable types: 21 continuous, 158 integer (158 binary)

Root relaxation: objective 3.500000e+01, 277 iterations, 0.02 seconds (0.01 work units)

    Nodes    |    Current Node    |     Objective Bounds      |     Work
 Expl Unexpl |  Obj  Depth IntInf | Incumbent    BestBd   Gap | It/Node Time

     0     0   35.00000    0   10   50.00000   35.00000  30.0%     -    0s
     0     0   35.00000    0   10   50.00000   35.00000  30.0%     -    0s
     0     2   35.00000    0    9   50.00000   35.00000  30.0%     -    0s
*  512   425              18      47.0000000   35.00000  25.5%  14.4    0s
*  518   425              20      46.0000000   35.00000  23.9%  14.3    0s
*  675   468              22      42.0000000   35.00000  16.7%  13.3    0s
*  964   531              25      41.0000000   35.00000  14.6%  13.8    0s
* 1505   615              25      39.0000000   35.00000  10.3%  12.5    0s

Explored 6077 nodes (53190 simplex iterations) in 0.33 seconds (0.33 work units)
Thread count was 18 (of 36 available processors)

Solution count 6: 39 41 42 ... 50

Optimal solution found (tolerance 1.00e-04)
Best objective 3.900000000000e+01, best bound 3.900000000000e+01, gap 0.0000%
